22	3	3
6	6	6	36	39	60	
0	0	0	0	9	4	8	8	10	2	20	2	3	4	5	6	7	8	9	10	11	12	13	14	15	16	17	18	19	20	21
4	0	3	1	4	8	3	6	5	7	2	22	4
1	0	1	3	4	6	10	10	7	8	2	22	20
1	1	2	2	2	7	1	3	2	9	3	22	14	12
2	3	3	0	2	5	2	2	10	3	3	22	8	11
2	3	0	1	6	9	7	3	7	6	2	22	16
5	3	2	1	5	10	3	8	6	8	2	22	10
1	1	1	1	5	9	3	4	9	10	1	22
3	1	2	0	1	10	6	1	2	7	3	22	19	20
2	0	2	0	9	4	1	1	5	1	2	22	12
4	2	0	0	3	10	10	9	3	6	1	22
1	1	1	3	4	8	6	7	6	1	2	22	14
3	1	0	0	5	10	10	8	3	8	2	22	17
3	1	3	2	7	4	7	2	5	9	1	22
1	0	0	2	9	4	3	9	4	7	1	22
4	2	2	0	10	6	7	9	5	10	1	22
2	2	3	0	4	9	7	10	5	3	1	22
3	2	0	2	10	10	2	9	7	5	2	22	19
3	3	3	2	7	3	8	4	5	3	1	22
5	2	0	1	2	3	6	5	2	10	1	22
4	2	2	1	2	2	5	8	10	10	1	22
0	0	0	0	7	4	8	4	3	3	0
